c FILE /home/rafael/Documents/HappySet/MIHS/inputs/happygen/output/graph_scale_free_k2_p0.1_v100_20241127_083749.txt
c SOURCE This is a scale-free graph formed for the happy graph colouring problem.
c DESCRIPTION It was generated using the problem generator of Rhyd Lewis
c
c GRAPH STATS
c Seed                             = 1894031674
c Number of Nodes                  = 100
c Number of colours k              = 2
c Number of pre-assignments        = 10
c Number of links per new node     = 5
c Density                          = 0.0979798
c 
c The degrees of nodes 1 to 100, respectively, are as follows 
c [40, 31, 30, 26, 26, 25, 24, 24, 22, 20, 19, 18, 18, 17, 17, 15, 14, 13, 13, 12, 12, 12, 12, 11, 11, 11, 
c  11, 10, 10, 10, 10, 10, 9, 9, 9, 9, 9, 8, 8, 8, 8, 8, 8, 7, 7, 7, 7, 7, 7, 7, 7, 
c  7, 7, 7, 7, 6, 6, 6, 6, 6, 6, 6, 6, 6, 6, 6, 6, 6, 6, 5, 5, 5, 5, 5, 5, 5, 
c  5, 5, 5, 5, 5, 5, 5, 5, 5, 5, 5, 5, 5, 5, 5, 5, 5, 5, 5, 5, 5, 5, 5, 5] 
c  
p edge 100 485 2
e 1 2
e 1 3
e 1 4
e 1 5
e 1 6
e 1 7
e 1 8
e 1 9
e 1 11
e 1 12
e 1 13
e 1 14
e 1 18
e 1 20
e 1 21
e 1 22
e 1 24
e 1 25
e 1 26
e 1 27
e 1 30
e 1 34
e 1 37
e 1 41
e 1 45
e 1 58
e 1 62
e 1 63
e 1 65
e 1 66
e 1 69
e 1 70
e 1 78
e 1 82
e 1 84
e 1 87
e 1 93
e 1 96
e 1 97
e 1 99
e 2 3
e 2 5
e 2 6
e 2 7
e 2 10
e 2 11
e 2 12
e 2 13
e 2 14
e 2 16
e 2 18
e 2 20
e 2 25
e 2 28
e 2 29
e 2 33
e 2 34
e 2 36
e 2 39
e 2 41
e 2 47
e 2 60
e 2 66
e 2 73
e 2 75
e 2 78
e 2 82
e 2 94
e 2 95
e 2 100
e 3 4
e 3 5
e 3 6
e 3 7
e 3 9
e 3 10
e 3 11
e 3 16
e 3 18
e 3 19
e 3 20
e 3 22
e 3 29
e 3 32
e 3 36
e 3 51
e 3 54
e 3 59
e 3 67
e 3 72
e 3 76
e 3 77
e 3 78
e 3 79
e 3 85
e 3 88
e 3 90
e 3 94
e 4 5
e 4 6
e 4 8
e 4 10
e 4 11
e 4 12
e 4 13
e 4 16
e 4 17
e 4 22
e 4 24
e 4 25
e 4 32
e 4 33
e 4 35
e 4 36
e 4 43
e 4 46
e 4 54
e 4 69
e 4 74
e 4 88
e 4 90
e 4 96
e 5 6
e 5 7
e 5 8
e 5 9
e 5 11
e 5 12
e 5 13
e 5 14
e 5 16
e 5 17
e 5 25
e 5 26
e 5 30
e 5 33
e 5 38
e 5 42
e 5 51
e 5 54
e 5 56
e 5 60
e 5 75
e 5 83
e 6 7
e 6 9
e 6 11
e 6 14
e 6 15
e 6 18
e 6 21
e 6 22
e 6 24
e 6 28
e 6 31
e 6 40
e 6 44
e 6 50
e 6 59
e 6 70
e 6 72
e 6 75
e 6 79
e 6 84
e 7 13
e 7 16
e 7 21
e 7 24
e 7 27
e 7 28
e 7 31
e 7 37
e 7 40
e 7 45
e 7 46
e 7 72
e 7 82
e 7 84
e 7 85
e 7 87
e 7 89
e 7 93
e 7 97
e 8 11
e 8 12
e 8 18
e 8 19
e 8 20
e 8 21
e 8 28
e 8 31
e 8 33
e 8 38
e 8 39
e 8 53
e 8 56
e 8 58
e 8 59
e 8 68
e 8 75
e 8 76
e 8 81
e 8 87
e 8 92
e 9 11
e 9 12
e 9 15
e 9 17
e 9 27
e 9 28
e 9 31
e 9 38
e 9 39
e 9 47
e 9 49
e 9 60
e 9 62
e 9 63
e 9 71
e 9 77
e 9 99
e 9 100
e 10 12
e 10 13
e 10 15
e 10 19
e 10 23
e 10 25
e 10 34
e 10 43
e 10 46
e 10 52
e 10 66
e 10 69
e 10 73
e 10 77
e 10 81
e 10 83
e 10 99
e 11 23
e 11 26
e 11 34
e 11 35
e 11 38
e 11 41
e 11 44
e 11 51
e 11 57
e 11 72
e 11 90
e 12 14
e 12 26
e 12 30
e 12 38
e 12 52
e 12 55
e 12 71
e 12 77
e 12 83
e 12 86
e 12 99
e 13 15
e 13 19
e 13 24
e 13 29
e 13 33
e 13 51
e 13 58
e 13 64
e 13 71
e 13 86
e 13 94
e 13 95
e 14 17
e 14 23
e 14 30
e 14 44
e 14 50
e 14 62
e 14 63
e 14 65
e 14 77
e 14 78
e 14 82
e 14 98
e 15 20
e 15 30
e 15 34
e 15 39
e 15 45
e 15 50
e 15 54
e 15 67
e 15 68
e 15 79
e 15 80
e 15 88
e 15 91
e 16 17
e 16 40
e 16 46
e 16 49
e 16 51
e 16 61
e 16 68
e 16 72
e 16 91
e 16 94
e 17 32
e 17 57
e 17 64
e 17 68
e 17 74
e 17 83
e 17 93
e 17 98
e 17 100
e 18 21
e 18 36
e 18 44
e 18 45
e 18 71
e 18 89
e 18 90
e 18 95
e 19 33
e 19 37
e 19 41
e 19 42
e 19 48
e 19 49
e 19 56
e 19 58
e 19 92
e 20 28
e 20 29
e 20 48
e 20 64
e 20 79
e 20 81
e 20 96
e 21 43
e 21 47
e 21 55
e 21 57
e 21 73
e 21 74
e 21 89
e 22 24
e 22 31
e 22 39
e 22 45
e 22 54
e 22 80
e 22 87
e 22 93
e 23 29
e 23 35
e 23 42
e 23 44
e 23 63
e 23 70
e 23 71
e 23 86
e 23 98
e 24 35
e 24 37
e 24 53
e 24 73
e 24 74
e 25 35
e 25 36
e 25 40
e 25 41
e 25 46
e 25 79
e 26 28
e 26 32
e 26 52
e 26 55
e 26 57
e 26 74
e 26 93
e 27 37
e 27 51
e 27 64
e 27 66
e 27 82
e 27 86
e 27 88
e 27 98
e 28 35
e 28 59
e 28 70
e 29 33
e 29 47
e 29 48
e 29 61
e 29 67
e 30 43
e 30 47
e 30 49
e 30 75
e 30 83
e 31 52
e 31 55
e 31 56
e 31 85
e 31 90
e 32 57
e 32 69
e 32 80
e 32 84
e 32 91
e 32 97
e 33 42
e 33 53
e 34 53
e 34 70
e 34 76
e 34 84
e 35 40
e 35 61
e 35 95
e 36 60
e 36 68
e 36 73
e 36 100
e 37 38
e 37 42
e 37 50
e 37 61
e 38 50
e 38 61
e 39 48
e 39 80
e 39 91
e 40 48
e 40 52
e 40 62
e 41 57
e 41 60
e 41 92
e 42 81
e 42 87
e 42 88
e 43 49
e 43 65
e 43 67
e 43 85
e 44 76
e 44 91
e 45 58
e 45 95
e 46 49
e 46 92
e 47 56
e 47 62
e 48 63
e 48 65
e 49 69
e 50 64
e 50 89
e 51 76
e 52 55
e 52 96
e 53 58
e 53 81
e 53 97
e 54 85
e 54 100
e 55 92
e 55 98
e 56 59
e 59 89
e 60 66
e 61 80
e 62 99
e 63 78
e 64 65
e 65 86
e 66 67
e 67 97
e 68 94
e 69 96
n 34 1
n 35 1
n 38 2
n 42 2
n 47 1
n 50 2
n 64 2
n 76 1
n 81 2
n 97 1
